solutions/Insertion/cheapest/X-n153-k22.txt
[[[83], [83, 34], [83, 74, 34], [83, 74, 88, 34], [83, 74, 88, 139, 34], [83, 74, 88, 139, 105, 34], [83, 74, 88, 139, 105, 129, 34], [83, 74, 88, 139, 105, 129, 49, 34], [83, 74, 88, 139, 105, 129, 49, 110, 34], [83, 74, 88, 139, 105, 129, 49, 110, 39, 34], [83, 74, 88, 139, 105, 129, 49, 110, 39, 41, 34], [83, 74, 88, 139, 105, 129, 49, 110, 39, 41, 144, 34], [83, 74, 88, 139, 105, 129, 49, 110, 39, 41, 144, 14, 34], [83, 74, 88, 139, 105, 129, 49, 110, 39, 41, 144, 14, 145, 34], [83, 74, 88, 139, 105, 129, 49, 110, 39, 41, 144, 14, 145, 66, 34], [83, 74, 88, 139, 105, 129, 49, 110, 39, 41, 144, 14, 145, 66, 34]], [[102], [102, 87], [102, 87, 47], [102, 87, 47, 149], [102, 87, 47, 149, 131], [102, 87, 47, 149, 131, 65], [102, 87, 47, 149, 131, 65, 111], [102, 87, 47, 149, 131, 65, 111, 15], [102, 87, 47, 149, 131, 65, 111, 15, 141], [102, 87, 47, 149, 131, 65, 111, 15, 141]], [[21], [21, 130], [21, 130, 53], [21, 130, 53, 42], [21, 130, 53, 42, 57], [21, 130, 53, 42, 57, 36], [21, 130, 53, 42, 57, 36, 124], [21, 130, 53, 42, 57, 36, 124, 104], [21, 130, 53, 42, 57, 36, 124, 104, 64], [21, 130, 53, 42, 57, 36, 124, 104, 64, 82], [21, 130, 53, 42, 57, 36, 124, 104, 64, 82]], [[95], [95, 71], [95, 71, 7], [95, 71, 7]], [[117], [117, 45], [117, 45, 8], [117, 45, 90, 8], [117, 45, 90, 33, 8], [117, 45, 90, 33, 63, 8], [117, 45, 90, 33, 63, 146, 8], [117, 45, 90, 33, 63, 146, 143, 8], [117, 45, 90, 33, 63, 146, 143, 8]], [[107], [107, 120], [107, 120, 78], [107, 120, 78, 30], [107, 120, 78, 30, 61], [107, 120, 78, 30, 61, 101], [107, 120, 78, 30, 61, 101, 62], [107, 120, 78, 30, 61, 101, 62, 80], [107, 120, 78, 30, 61, 101, 62, 80]], [[23], [23, 89], [23, 89]], [[147], [147, 40], [147, 1, 40], [147, 1, 40]], [[113], [113, 123], [113, 123, 109], [113, 123, 109, 136], [113, 123, 109, 136, 79], [113, 123, 109, 136, 79, 24], [113, 123, 109, 136, 79, 24]], [[9], [9, 60], [9, 60, 86], [9, 60, 86]], [[29], [29, 28], [29, 28, 99], [29, 28, 99, 92], [29, 28, 99, 92]], [[11], [11, 84], [11, 84, 69], [11, 84, 69, 58], [11, 84, 69, 58]], [[16], [16, 68], [16, 68, 138], [16, 68, 138]], [[13], [13, 32], [13, 32, 67], [13, 32, 67, 35], [13, 32, 67, 35, 150], [13, 32, 67, 35, 150]], [[37], [37, 128], [37, 128, 73], [37, 128, 73, 142], [37, 128, 73, 142, 54], [37, 128, 73, 142, 54, 52], [37, 128, 73, 142, 54, 52, 93], [37, 128, 73, 142, 54, 52, 93, 2], [37, 128, 73, 142, 54, 52, 93, 2, 121], [37, 128, 73, 142, 54, 52, 93, 2, 121, 55], [37, 128, 73, 142, 54, 52, 93, 2, 121, 55, 112], [37, 128, 73, 142, 54, 52, 93, 2, 121, 55, 112]], [[5], [5, 125], [5, 125, 106], [5, 125, 106]], [[6], [6, 115], [6, 115, 75], [6, 115, 75]], [[26], [26, 38], [26, 38]], [[77], [77, 48], [77, 48, 135], [77, 48, 135, 44], [77, 48, 135, 44, 103], [77, 48, 135, 44, 103, 81], [77, 48, 135, 44, 103, 81, 20], [77, 48, 135, 44, 103, 81, 20, 72], [77, 48, 135, 44, 103, 81, 20, 72, 114], [77, 48, 135, 44, 103, 81, 20, 72, 114, 76], [77, 48, 135, 44, 103, 81, 20, 72, 114, 76]], [[98], [98, 50], [98, 50, 85], [98, 50, 85, 18], [98, 50, 85, 18, 97], [98, 50, 85, 18, 97, 118], [98, 50, 85, 18, 97, 118, 151], [98, 50, 85, 18, 97, 118, 151, 43], [98, 50, 85, 18, 97, 118, 151, 43, 127], [98, 50, 85, 18, 97, 118, 151, 43, 127, 56], [98, 50, 85, 18, 97, 118, 151, 43, 127, 56]], [[17], [17, 134], [17, 134, 94], [17, 134, 94, 108], [17, 134, 94, 108, 116], [17, 134, 94, 108, 116]], [[27], [27]], [[152], [152, 12], [152, 12, 46], [152, 12, 46]], [[25], [25]], [[148], [148, 10], [148, 10]], [[19], [19, 133], [19, 133, 51], [19, 133, 51, 122], [19, 133, 51, 122, 59], [19, 133, 51, 122, 59]], [[4], [4]], [[3], [3, 132], [3, 132, 96], [3, 132, 96, 22], [3, 132, 96, 22]], [[140], [140, 31], [140, 31, 126], [140, 31, 126, 119], [140, 31, 126, 119, 91], [140, 31, 126, 119, 91, 70], [140, 31, 126, 119, 91, 70, 100], [140, 31, 126, 119, 91, 70, 100, 137], [140, 31, 126, 119, 91, 70, 100, 137]]]