solutions/Insertion/cheapest/X-n153-k22.sol
Route #1: 83 74 88 139 105 129 49 110 39 41 144 14 145 66 34
Route #2: 102 87 47 149 131 65 111 15 141
Route #3: 21 130 53 42 57 36 124 104 64 82
Route #4: 95 71 7
Route #5: 117 45 90 33 63 146 143 8
Route #6: 107 120 78 30 61 101 62 80
Route #7: 23 89
Route #8: 147 1 40
Route #9: 113 123 109 136 79 24
Route #10: 9 60 86
Route #11: 29 28 99 92
Route #12: 11 84 69 58
Route #13: 16 68 138
Route #14: 13 32 67 35 150
Route #15: 37 128 73 142 54 52 93 2 121 55 112
Route #16: 5 125 106
Route #17: 6 115 75
Route #18: 26 38
Route #19: 77 48 135 44 103 81 20 72 114 76
Route #20: 98 50 85 18 97 118 151 43 127 56
Route #21: 17 134 94 108 116
Route #22: 27
Route #23: 152 12 46
Route #24: 25
Route #25: 148 10
Route #26: 19 133 51 122 59
Route #27: 4
Route #28: 3 132 96 22
Route #29: 140 31 126 119 91 70 100 137
cost: 28076
